# Objective value = 2.9564522568987786e+02
x[0] 0
x[1] 1
x[2] -1.6923631163123787e-08
x[3] 0
x[4] 0
x[5] 1
x[6] 1
x[7] 0
x[8] 0
x[9] 1
x[10] 0
x[11] 1
x[12] 1.0000000164903595e+00
x[13] 0
x[14] 1
x[15] 1
x[16] 0
x[17] -1.3590297607745848e-08
x[18] 1.0000000167108543e+00
x[19] 1.2538865455633059e-08
x[20] 1
x[21] 1
x[22] 1
x[23] 0
x[24] 9.9999993986971736e-01
x[25] 0
x[26] 1
x[27] 1
x[28] 0
x[29] 1
x[30] 0
x[31] 1
x[32] 0
x[33] 1
x[34] 1
x[35] 1
x[36] 1
x[37] 1
x[38] 1
x[39] 1
x[40] 1
x[41] 0
x[42] 1
x[43] 1
x[44] 1
x[45] 9.9999995256244190e-01
x[46] 1
x[47] 0
x[48] 0.999999744207121
x[49] 1
x[50] 0
x[51] 0
x[52] 0
x[53] 1
x[54] 0
x[55] 1
x[56] 4.9962761828597259e-07
x[57] 1
x[58] 1
x[59] 1
x[60] 0
x[61] 1
x[62] 5.0693793552752937e-08
x[63] 0
x[64] 1
x[65] 0
x[66] 1
x[67] 0
x[68] 0
x[69] 1
x[70] 1
x[71] 0
x[72] 0
x[73] 1
x[74] 0
x[75] 1
x[76] 1
x[77] 0
x[78] 1
x[79] -1.6923630941079182e-08
x[80] 0
x[81] 1
x[82] 1
x[83] 1
x[84] 0
x[85] 1
x[86] 0
x[87] 1
x[88] 0
x[89] 9.9999995256244090e-01
x[90] 0
x[91] 1
x[92] 0
x[93] 1
x[94] 1
x[95] 1
x[96] 0
x[97] 1
x[98] 0
x[99] 0
x[100] 1
x[101] 1
x[102] 0
x[103] 1
x[104] 0
x[105] 0
x[106] 0
x[107] 9.9999994922910751e-01
x[108] 1
x[109] 0
x[110] 1
x[111] 0
x[112] 1
x[113] 1
x[114] 1
x[115] 1
x[116] 1
x[117] 0
x[118] 0
x[119] 1
x[120] 1
x[121] 1
x[122] 1
x[123] 0
x[124] 1
x[125] 1
x[126] 0
x[127] 0
x[128] 1
x[129] 0
x[130] 0
x[131] 0
x[132] 9.9999998307636950e-01
x[133] 0
x[134] 0
x[135] 1.0000000139157650e+00
x[136] 1
x[137] 1
x[138] 0
x[139] 0
x[140] 1
x[141] 1
x[142] 0
x[143] 0
x[144] 0
x[145] 1
x[146] 0
x[147] 0
x[148] 1
x[149] 1
x[150] 0
x[151] 5.0689393435273722e-08
x[152] 1.0000000167915402e+00
x[153] 9.9999998640970267e-01
x[154] 9.9999998307636917e-01
x[155] 9.9999995256244090e-01
x[156] 1
x[157] 1
x[158] 0
x[159] 0
x[160] 0
x[161] 1
x[162] 1
x[163] -1.4133239935045902e-08
x[164] 0
x[165] 1.0000000167914265e+00
x[166] 0
x[167] 0
x[168] 0
x[169] 0
x[170] 0
x[171] 0
x[172] 0
x[173] 1
x[174] 9.9999998307636917e-01
x[175] 1.0000000166936982e+00
x[176] -3.051392857965e-08
x[177] 0
x[178] 0
x[179] 0
x[180] 0
x[181] 0
x[182] 0
x[183] 1
x[184] 0
x[185] 1
x[186] 1
x[187] 0
x[188] 0.999999955865244
x[189] 3.9824645661254386e-08
x[190] 0
x[191] 0
x[192] 1
x[193] 0
x[194] 1
x[195] 0
x[196] 1
x[197] 1
x[198] 0
x[199] 9.9999995346001558e-01
x[200] 1.0000000168172638e+00
x[201] 1
x[202] 1
x[203] 1
x[204] 1
x[205] -1.6923630941079182e-08
x[206] -1.6923630941079182e-08
x[207] 0
x[208] 0
x[209] 1
x[210] 1
x[211] -1.9232926301395688e-07
x[212] 0
x[213] 0
x[214] 0
x[215] 1
x[216] 1
x[217] 0
x[218] 0
x[219] 0
x[220] -1.5507718546395194e-08
x[221] 1
x[222] 1
x[223] 1
x[224] 1
x[225] 0
x[226] 0
x[227] 0
x[228] 1
x[229] 0
x[230] 9.9999998730727679e-01
x[231] 1
x[232] 0
x[233] 0
x[234] 1
x[235] 0
x[236] 0
x[237] -1.6923630941079182e-08
x[238] 5.0687576630598262e-08
x[239] 1
x[240] 0
x[241] 1
x[242] 0
x[243] 0
x[244] 1
x[245] 1
x[246] 1
x[247] 0
x[248] 0
x[249] 1
x[250] 1
x[251] 1
x[252] 1
x[253] 1
x[254] 1
x[255] 1
x[256] 4.6423156977709791e-08
x[257] 9.9999995192861291e-01
x[258] 0
x[259] 0
x[260] 9.9999995679334908e-01
x[261] 1
x[262] 1
x[263] 1
x[264] 1
x[265] 0
x[266] 0
x[267] 0
x[268] 0
x[269] 0
x[270] 0
x[271] 9.9999995256244090e-01
x[272] 0
x[273] 1
x[274] 1
x[275] 0
x[276] 0
x[277] 1
x[278] 1.6797899016284539e-08
x[279] 0
x[280] 0.999999988365004
x[281] 1
x[282] 0
x[283] 0
x[284] 1
x[285] 0
x[286] 1
x[287] 1
x[288] 0
x[289] 0
x[290] 1.0000000168587562e+00
x[291] 1.0000000168292842e+00
x[292] 0
x[293] 0
x[294] 0
x[295] 1
x[296] 0
x[297] 0
x[298] 1
x[299] 1
x[300] 0
x[301] 4.6423468030641240e-08
x[302] 0
x[303] 0
x[304] 1
x[305] 0
x[306] 1
x[307] 0
x[308] 0
x[309] 1
x[310] 0
x[311] 0
x[312] 5.0672559199448825e-08
x[313] 0
x[314] 0
x[315] 1
x[316] 0
x[317] 1
x[318] 1
x[319] -1.6923630941079182e-08
x[320] 1
x[321] 0
x[322] 0
x[323] 1
x[324] 0
x[325] 1
x[326] 1
x[327] 1
x[328] 4.9984543069044975e-08
x[329] 0
x[330] 0
x[331] 1
x[332] 0
x[333] 4.6129770737203912e-08
x[334] 1.0000000168285124e+00
x[335] 0
x[336] 1
x[337] 0
x[338] 0
x[339] 1
x[340] 0
x[341] 1.2542530226051937e-08
x[342] 1
x[343] 1
x[344] 0
x[345] 9.9999995346001547e-01
x[346] 0
x[347] 0
x[348] 1
x[349] 1
x[350] 0
x[351] 1
x[352] 0
x[353] 0
x[354] 0
x[355] 0
x[356] 1
x[357] 0
x[358] 0
x[359] 0
x[360] 0
x[361] 1
x[362] 1
x[363] 1.6835883111844068e-08
x[364] 1
x[365] 0
x[366] 1
x[367] 1
x[368] 0
x[369] 1
x[370] 0
x[371] 9.9999991181901071e-01
x[372] 1
x[373] 1
x[374] 1
x[375] 0
x[376] 1
x[377] 6.7563562707951191e-08
x[378] 1
x[379] 1
x[380] 0
x[381] 9.9999995238151185e-01
x[382] 0
x[383] 1
x[384] -1.2024651455512827e-08
x[385] 4.6171414071121793e-08
x[386] 1.0000000168518608e+00
x[387] 1
x[388] 4.64431950608522e-08
x[389] 0
x[390] 1
x[391] -1.6923630941079182e-08
x[392] 1
x[393] 1
x[394] 0
x[395] 0
x[396] 1.6232494824877667e-08
x[397] 0
x[398] 1
x[399] 0
x[400] 0
x[401] 1
x[402] 0
x[403] 0
x[404] 0
x[405] 1
x[406] 0
x[407] 0
x[408] 0
x[409] 0
x[410] 0
x[411] 9.9999996615273834e-01
x[412] 1
x[413] 1
x[414] 6.3402882482762244e-08
x[415] 0
x[416] 0
x[417] 1
x[418] 9.9999998730727679e-01
x[419] 1
x[420] 9.9999994922910751e-01
x[421] 0
x[422] 0
x[423] -1.9566259629177907e-07
x[424] 0
x[425] 0
x[426] 1
x[427] 0
x[428] 0
x[429] 0
x[430] 0
x[431] 1
x[432] 0
x[433] 4.6386283160515963e-08
x[434] 5.0488173502311112e-08
x[435] 0
x[436] 1
x[437] 1.0000001955878470e+00
x[438] 1
x[439] 1
x[440] 1
x[441] 0
x[442] 0
x[443] 1
x[444] 0
x[445] 0
x[446] 0
x[447] 1
x[448] 0
x[449] 5.0656120168762347e-08
x[450] 0
x[451] 0
x[452] 1
x[453] 0
x[454] 0
x[455] 1
x[456] 9.9999995346001569e-01
x[457] 0
x[458] 0
x[459] 5.0243686696464326e-08
x[460] 0
x[461] 0
x[462] 0
x[463] 0
x[464] 1
x[465] 1
x[466] 1
x[467] 0
x[468] 9.9999964673843988e-01
x[469] 1
x[470] 0
x[471] 0
x[472] 0
x[473] 0
x[474] 1
x[475] 0
x[476] 1
x[477] 0
x[478] 0
x[479] 0
x[480] 1.0000000168272110e+00
x[481] 1.0000000151179309e+00
x[482] 0
x[483] 0
x[484] 1
x[485] 0
x[486] 0
x[487] 9.9999998730727679e-01
x[488] 0
x[489] 0
x[490] 1
x[491] 1
x[492] 0
x[493] 9.9999995835899491e-01
x[494] 1
x[495] 0
x[496] 1
x[497] -1.3483930522950571e-08
x[498] 1
x[499] 0
x[500] 1
x[501] 1
x[502] 0
x[503] 0
x[504] 1.2625027222963106e-08
x[505] 1.6841146622425262e-08
x[506] 0
x[507] 0
x[508] 0
x[509] 0
x[510] 0
x[511] 0
x[512] 1
x[513] 0
x[514] 0
x[515] 1
x[516] 9.9999967807824353e-01
x[517] 0
x[518] 0
x[519] 0
x[520] 1
x[521] 0
x[522] 1
x[523] 0
x[524] 1
x[525] 1
x[526] 1
x[527] 1
x[528] 0
x[529] 0
x[530] 9.9999998307636917e-01
x[531] 0
x[532] 9.9999995346001569e-01
x[533] 0
x[534] 1
x[535] 6.32307353138151e-08
x[536] 0
x[537] 1
x[538] 0
x[539] 0
x[540] 0
x[541] 0
x[542] 1
x[543] 0
x[544] 0
x[545] 0
x[546] 0
x[547] 1
x[548] 1
x[549] 1
x[550] 0
x[551] 1
x[552] 0
x[553] 0
x[554] 0
x[555] 3.3773697912909169e-08
x[556] 1.0000000168564893e+00
x[557] 1
x[558] 0
x[559] 1
x[560] 0
x[561] 1
x[562] 0
x[563] 1
x[564] 0
x[565] 1
x[566] 0
x[567] 0
x[568] 0
x[569] 1
x[570] 0
x[571] 1
x[572] 1
x[573] 0
x[574] 0
x[575] 1
x[576] 1
x[577] 0
x[578] 2.3159904094567052e-08
x[579] 1
x[580] 1
x[581] 1
x[582] 1
x[583] 1
x[584] 1
x[585] 9.9999992294608742e-01
x[586] 8.9984565298575440e-08
x[587] 1
x[588] 0
x[589] 1.0000000167884124e+00
x[590] 1
x[591] 0
x[592] 1
x[593] 1
x[594] 0
x[595] 1
x[596] 1
x[597] 9.9999998307636917e-01
x[598] 0
x[599] 0
x[600] 0
x[601] 1
x[602] 0
x[603] 9.9999995262731556e-01
x[604] 1
x[605] 1
x[606] 0
x[607] 1
x[608] 1
x[609] 0
x[610] 0
x[611] 0
x[612] 0
x[613] 1
x[614] 1
x[615] 0
x[616] 5.0697434377192063e-08
x[617] 1.6749069468923576e-08
x[618] 0
x[619] 0
x[620] 0
x[621] 0
x[622] 0
x[623] 0
x[624] 0
x[625] 1
x[626] -1.6923630941079182e-08
x[627] 1
x[628] 1
x[629] 0
x[630] 0
x[631] 1
x[632] 1
x[633] 0
x[634] 0
x[635] 1
x[636] 1
x[637] 0
x[638] 1
x[639] 0
x[640] 1
x[641] 9.9999995346001558e-01
x[642] 0
x[643] 1
x[644] 0
x[645] 0
x[646] 1
x[647] 0
x[648] 1
x[649] 0
x[650] 0
x[651] 0
x[652] 0
x[653] 0
x[654] 0
x[655] 0
x[656] 1
x[657] -1.5422859487607953e-08
x[658] 9.9999996615273834e-01
x[659] 1
x[660] 0
x[661] 1
x[662] 1
x[663] 0
x[664] 1
x[665] 0
x[666] 1
x[667] 0
x[668] 0
x[669] 1
x[670] 1
x[671] 1
x[672] 1
x[673] 1
x[674] 0
x[675] 0
x[676] 0
x[677] 1
x[678] 0
x[679] 0
x[680] 1
x[681] 0
x[682] 1
x[683] -1.3590297829790453e-08
x[684] 0
x[685] 0
x[686] 0
x[687] 1.2335878543841608e-08
x[688] 1
x[689] 1
x[690] 0
x[691] 1
x[692] 1.0000000166189260e+00
x[693] 1
x[694] 1
x[695] -1.6923630941079182e-08
x[696] 0
x[697] 0
x[698] 0
x[699] 0
x[700] 0
x[701] 0
x[702] 0
x[703] 1
x[704] 1
x[705] 0
x[706] 0
x[707] 0
x[708] 1
x[709] 0
x[710] 1
x[711] 0
x[712] 9.9999995045122614e-01
x[713] 1
x[714] 0
x[715] 0
x[716] 1
x[717] 0
x[718] 0
x[719] 1
x[720] 1
x[721] 9.9999995256244190e-01
x[722] 9.9999995420958609e-01
x[723] 1
x[724] 0
x[725] 4.6022705520144520e-08
x[726] 1
x[727] 1
x[728] 0
x[729] 1
x[730] 1
x[731] 9.9999995346001569e-01
x[732] 1
x[733] 0
x[734] 1
x[735] 1.0000000168584444e+00
x[736] 0
x[737] 1
x[738] 1
x[739] 1
x[740] 1
x[741] 1
x[742] 1
x[743] 0
x[744] 0
x[745] 1
x[746] 1
x[747] 1
x[748] 1
x[749] 0
x[750] 0
x[751] 4.6465131470971546e-08
x[752] 1
x[753] 1
x[754] 0
x[755] 1
x[756] 1
x[757] 1
x[758] 1
x[759] 4.63871259573967e-08
x[760] 0
x[761] 1
x[762] 1
x[763] 0
x[764] 1
x[765] 1
x[766] 1
x[767] 0
x[768] 0
x[769] 1.0000000168584782e+00
x[770] 0
x[771] 1
x[772] 0
x[773] 1
x[774] 4.6471046593198714e-08
x[775] 1
x[776] 1
x[777] 1
x[778] 1
x[779] 9.9999998807636914e-01
x[780] 0
x[781] 0
x[782] 4.6177043070773389e-08
x[783] 0
x[784] 1
x[785] 1
x[786] 1
x[787] 0
x[788] 0
x[789] 0
x[790] 0
x[791] 1
x[792] 1.6718772234140158e-08
x[793] 1
x[794] 1
x[795] 1
x[796] 1
x[797] 1
x[798] 5.0593623482930864e-08
x[799] 4.64560827312097e-08
x[800] 1
x[801] 1
x[802] 1
x[803] 1
x[804] 1
x[805] 0
x[806] 1
x[807] 1
x[808] 0
x[809] 1
x[810] 1
x[811] 1
x[812] 0
x[813] 0
x[814] 0
x[815] 1
x[816] 2.7589554288540561e-07
x[817] 0
x[818] 0
x[819] 0
x[820] 1
x[821] 0
x[822] -1.6923631163123787e-08
x[823] 1
x[824] 1
x[825] 0
x[826] 1
x[827] 1
x[828] 1
x[829] 0
x[830] 0
x[831] -1.6923630941079182e-08
x[832] 8.0272341493927277e-08
x[833] 1
x[834] 1
x[835] 1
x[836] 0
x[837] 0
x[838] 0
x[839] 1
x[840] 0
x[841] 1
x[842] 1
x[843] -1.6923630496989972e-08
x[844] 0
x[845] 1
x[846] 0
x[847] 1
x[848] 0
x[849] 0
x[850] 1
x[851] 1
x[852] 1
x[853] 0
x[854] 0
x[855] 0
x[856] 1
x[857] 1
x[858] 1
x[859] 1
x[860] 4.60991791839094e-08
x[861] 1
x[862] 1.0000000168097549e+00
x[863] 0
x[864] 0
x[865] 0
x[866] 0
x[867] 0
x[868] 5.0672501198129162e-08
x[869] 1
x[870] 1
x[871] 0
x[872] 0
x[873] 1
x[874] 1
x[875] 3.5741459138239038e-07
x[876] 0
x[877] 1
x[878] 1
x[879] 1
x[880] 1
x[881] 1
x[882] 0
x[883] 0
x[884] 1
x[885] 0
x[886] 1
x[887] 1
x[888] 1
x[889] 1
x[890] 0
x[891] -1.6923630941079182e-08
x[892] 0
x[893] 0
x[894] 1
x[895] 0
x[896] 0
x[897] 0
x[898] 1
x[899] 1
x[900] -1.6923630970617749e-08
x[901] 0
x[902] 1
x[903] 0
x[904] 1
x[905] 0
x[906] 0
x[907] 1.0000000168467982e+00
x[908] 1.0000001955726687e+00
x[909] 0
x[910] 1
x[911] 1
x[912] 1
x[913] 0
x[914] 0
x[915] 1
x[916] 0
x[917] 1
x[918] 0
x[919] 0
x[920] 0
x[921] 1
x[922] 5.0678989014484951e-08
x[923] 1
x[924] 1
x[925] 1
x[926] 0
x[927] 1
x[928] 1
x[929] 0
x[930] 1
x[931] 1
x[932] 0
x[933] 1
x[934] 0
x[935] 9.9999998543497459e-01
x[936] 1
x[937] 1
x[938] 0
x[939] 1
x[940] 0
x[941] 0
x[942] 0
x[943] 1
x[944] 1
x[945] 0
x[946] 0
x[947] 1
x[948] 0
x[949] 0
x[950] 1
x[951] 0
x[952] 1
x[953] 0
x[954] 1
x[955] 1
x[956] 1.68024804728383e-08
x[957] -1.6923630970617749e-08
x[958] 1
x[959] 0
x[960] 1
x[961] 0
x[962] 0
x[963] 3.2655020270258478e-07
x[964] 1
x[965] 1
x[966] 0
x[967] 0
x[968] 1
x[969] -1.2024651100458857e-08
x[970] 0
x[971] 0
x[972] 0
x[973] 1
x[974] 1
x[975] 0
x[976] 9.9999998797534861e-01
x[977] 1
x[978] -1.3590297607745848e-08
x[979] 0
x[980] 1
x[981] 1
x[982] 1
x[983] 1
x[984] 5.0589759628048286e-08
x[985] 1
x[986] 0
x[987] 0
x[988] 0
x[989] 0
x[990] 0
x[991] 5.0460891306800951e-08
x[992] 0
x[993] 1.0000000166036913e+00
x[994] 1
x[995] 0
x[996] 1
x[997] 0
x[998] 9.9999998807636914e-01
x[999] 1
